50 93
4 2
1 7
4 8
5 8
4 1
5 1
10 2
9 7
5 2
5 6
6 5
9 10
4 6
5 4
1 6
9 7
8 3
2 1
10 7
1 4
2 4
9 10
1 8
10 6
10 7
2 8
3 3
8 10
3 8
9 9
4 7
2 4
6 1
7 3
5 4
3 6
8 4
8 8
9 10
2 3
8 4
4 4
1 7
7 10
6 8
7 9
9 4
1 10
8 3
6 1